c FILE /home/rafael/Documents/HappySet/MIHS/inputs/happygen/output/graph_d_regular_k5_p0.1_v50_20241127_082624.txt
c SOURCE This is a d-regular graph formed for the happy graph colouring problem.
c DESCRIPTION It was generated using the problem generator of Rhyd Lewis
c
c GRAPH STATS
c Seed                             = 38635585
c Number of Nodes                  = 50
c Number of colours k              = 5
c Number of pre-assignments        = 5
c Degree of all vertices           = 6
c Density                          = 0.122449
c 
c The degrees of nodes 1 to 50, respectively, are as follows 
c [6, 6, 6, 6, 6, 6, 6, 6, 6, 6, 6, 6, 6, 6, 6, 6, 6, 6, 6, 6, 6, 6, 6, 6, 6, 6, 
c  6, 6, 6, 6, 6, 6, 6, 6, 6, 6, 6, 6, 6, 6, 6, 6, 6, 6, 6, 6, 6, 6, 6, 6] 
c  
p edge 50 150 5
e 1 2
e 1 17
e 1 19
e 1 35
e 1 37
e 1 46
e 2 11
e 2 37
e 2 42
e 2 43
e 2 47
e 3 4
e 3 6
e 3 16
e 3 29
e 3 39
e 3 44
e 4 13
e 4 19
e 4 28
e 4 31
e 4 43
e 5 8
e 5 18
e 5 22
e 5 38
e 5 44
e 5 50
e 6 7
e 6 10
e 6 18
e 6 22
e 6 25
e 7 10
e 7 18
e 7 20
e 7 48
e 7 49
e 8 17
e 8 21
e 8 25
e 8 30
e 8 33
e 9 22
e 9 24
e 9 26
e 9 38
e 9 39
e 9 50
e 10 17
e 10 19
e 10 27
e 10 32
e 11 13
e 11 24
e 11 29
e 11 41
e 11 44
e 12 14
e 12 20
e 12 21
e 12 23
e 12 28
e 12 49
e 13 14
e 13 28
e 13 36
e 13 41
e 14 27
e 14 38
e 14 43
e 14 48
e 15 20
e 15 31
e 15 45
e 15 46
e 15 48
e 15 49
e 16 18
e 16 24
e 16 25
e 16 35
e 16 47
e 17 33
e 17 39
e 17 45
e 18 24
e 18 43
e 19 23
e 19 43
e 19 47
e 20 24
e 20 32
e 20 44
e 21 26
e 21 40
e 21 42
e 21 48
e 22 23
e 22 27
e 22 31
e 23 29
e 23 41
e 23 42
e 24 45
e 25 34
e 25 48
e 25 50
e 26 27
e 26 29
e 26 35
e 26 45
e 27 36
e 27 42
e 28 36
e 28 44
e 28 47
e 29 33
e 29 40
e 30 31
e 30 34
e 30 35
e 30 37
e 30 38
e 31 38
e 31 50
e 32 33
e 32 35
e 32 48
e 32 49
e 33 37
e 33 40
e 34 39
e 34 40
e 34 42
e 34 47
e 35 50
e 36 37
e 36 40
e 36 46
e 37 44
e 38 46
e 39 41
e 39 49
e 40 45
e 41 43
e 41 49
e 42 47
e 45 46
e 46 50
n 3 3
n 13 2
n 21 1
n 23 5
n 31 4
